NAME          BLANK   
ROWS
 N  OBJROW
 G  R0000000
 G  R0000001
 G  R0000002
 G  R0000003
 G  R0000004
 G  R0000005
 G  R0000006
COLUMNS
    C0000000  OBJROW    1.             R0000000  1.          
    C0000000  R0000001  1.             R0000003  1.          
    C0000000  R0000004  1.             R0000006  1.          
    C0000001  OBJROW    1.             R0000000  1.          
    C0000001  R0000001  1.             R0000002  1.          
    C0000001  R0000004  1.             R0000005  1.          
    C0000002  OBJROW    1.             R0000000  1.          
    C0000002  R0000002  1.             R0000003  1.          
    C0000002  R0000005  1.             R0000006  1.          
    C0000003  OBJROW    0.25           R0000001  1.          
    C0000003  R0000003  1.          
    C0000004  OBJROW    0.25           R0000001  1.          
    C0000004  R0000002  1.          
    C0000005  OBJROW    0.25           R0000002  1.          
    C0000005  R0000003  1.          
    C0000006  OBJROW    0.25           R0000004  1.          
    C0000006  R0000006  1.          
    C0000007  OBJROW    0.25           R0000004  1.          
    C0000007  R0000005  1.          
    C0000008  OBJROW    0.25           R0000005  1.          
    C0000008  R0000006  1.          
RHS
    RHS       R0000001  1.             R0000002  1.          
    RHS       R0000005  1.          
ENDATA
